dataset/large-201.in
50
80.0
0 49 1.0 0.0
1 48 1.0 0.0
2 47 1.0 0.0
3 46 1.0 0.0
4 45 1.0 0.0
5 44 1.0 0.0
6 43 1.0 0.0
7 42 1.0 0.0
8 41 1.0 0.0
9 40 1.0 0.0
10 39 1.0 0.0
11 38 1.0 0.0
12 37 1.0 0.0
13 36 1.0 0.0
14 35 1.0 0.0
15 34 1.0 0.0
16 33 1.0 0.0
17 32 1.0 0.0
18 31 1.0 0.0
19 30 1.0 0.0
20 29 1.0 0.0
21 28 1.0 0.0
22 27 1.0 0.0
23 26 1.0 0.0
24 25 1.0 0.0
25 24 1.0 0.0
26 23 1.0 0.0
27 22 1.0 0.0
28 21 1.0 0.0
29 20 1.0 0.0
30 19 1.0 0.0
31 18 1.0 0.0
32 17 1.0 0.0
33 16 1.0 0.0
34 15 1.0 0.0
35 14 1.0 0.0
36 13 1.0 0.0
37 12 1.0 0.0
38 11 1.0 0.0
39 10 1.0 0.0
40 9 1.0 0.0
41 8 1.0 0.0
42 7 1.0 0.0
43 6 1.0 0.0
44 5 1.0 0.0
45 4 1.0 0.0
46 3 1.0 0.0
47 2 1.0 0.0
48 1 1.0 0.0
